c clasp version 2.1.1
c Reading from p26.cnf
c Solving...
s SATISFIABLE

c Models        : 1+    
c Time          : 1.061s (Solving: 0.30s 1st Model: 0.29s Unsat: 0.00s)
c CPU Time      : 1.050s
c Choices       : 17947
c Conflicts     : 1456
c Restarts      : 4      (Average: 364.00 Last: 9)

c Variables     : 214715 (Eliminated: 67120 Frozen:    0)
c Constraints   : 253364 (Binary: 64.0% Ternary: 34.8% Other:  1.2%)
c Lemmas        : 1456   (Binary:  0.3% Ternary:  0.3% Other: 99.5%)
c   Conflict    : 1456   (Average Length: 111.8) 
c   Loop        : 0      (Average Length: 0.0) 
c   Other       : 0      (Average Length: 0.0)
c   Deleted     : 0     
